NAME          DCAP_3_4_2_200_SS159
ROWS
 N  OBJ
 L  CON1
 L  CON2
 L  CON3
 L  CON4
 L  CON5
 L  CON6
 L  CON7
 L  CON8
 L  CON9
 L  CON10
 L  CON11
 L  CON12
 E  CON13
 E  CON14
 E  CON15
 E  CON16
 E  CON17
 E  CON18
 E  CON19
 E  CON20
COLUMNS
    x[1,1]    OBJ       6.180167      CON1      1.000000    
    x[1,1]    CON7      -1.000000     CON8      -1.000000   
    x[1,2]    OBJ       5.039546      CON2      1.000000    
    x[1,2]    CON8      -1.000000   
    x[2,1]    OBJ       6.732585      CON3      1.000000    
    x[2,1]    CON9      -1.000000     CON10     -1.000000   
    x[2,2]    OBJ       7.443064      CON4      1.000000    
    x[2,2]    CON10     -1.000000   
    x[3,1]    OBJ       6.563535      CON5      1.000000    
    x[3,1]    CON11     -1.000000     CON12     -1.000000   
    x[3,2]    OBJ       6.054841      CON6      1.000000    
    x[3,2]    CON12     -1.000000   
    MARKER    'MARKER'                'INTORG'
    u[1,1]    OBJ       48.076654     CON1      -1.000000   
    u[1,2]    OBJ       49.466655     CON2      -1.000000   
    u[2,1]    OBJ       49.996186     CON3      -1.000000   
    u[2,2]    OBJ       32.230043     CON4      -1.000000   
    u[3,1]    OBJ       20.066487     CON5      -1.000000   
    u[3,2]    OBJ       27.484319     CON6      -1.000000   
    y[1,1,1]  OBJ       6.766486      CON7      0.891769    
    y[1,1,1]  CON13     1.000000    
    y[1,1,2]  OBJ       5.415527      CON8      0.802115    
    y[1,1,2]  CON14     1.000000    
    y[1,2,1]  OBJ       8.550191      CON7      1.230905    
    y[1,2,1]  CON15     1.000000    
    y[1,2,2]  OBJ       7.510588      CON8      0.680296    
    y[1,2,2]  CON16     1.000000    
    y[1,3,1]  OBJ       9.514035      CON7      1.048427    
    y[1,3,1]  CON17     1.000000    
    y[1,3,2]  OBJ       7.524303      CON8      0.705261    
    y[1,3,2]  CON18     1.000000    
    y[1,4,1]  OBJ       9.419187      CON7      1.184395    
    y[1,4,1]  CON19     1.000000    
    y[1,4,2]  OBJ       8.669651      CON8      1.494043    
    y[1,4,2]  CON20     1.000000    
    y[2,1,1]  OBJ       5.935424      CON9      0.891769    
    y[2,1,1]  CON13     1.000000    
    y[2,1,2]  OBJ       8.022393      CON10     0.802115    
    y[2,1,2]  CON14     1.000000    
    y[2,2,1]  OBJ       8.175214      CON9      1.230905    
    y[2,2,1]  CON15     1.000000    
    y[2,2,2]  OBJ       5.573395      CON10     0.680296    
    y[2,2,2]  CON16     1.000000    
    y[2,3,1]  OBJ       7.023917      CON9      1.048427    
    y[2,3,1]  CON17     1.000000    
    y[2,3,2]  OBJ       5.205010      CON10     0.705261    
    y[2,3,2]  CON18     1.000000    
    y[2,4,1]  OBJ       8.674247      CON9      1.184395    
    y[2,4,1]  CON19     1.000000    
    y[2,4,2]  OBJ       6.434127      CON10     1.494043    
    y[2,4,2]  CON20     1.000000    
    y[3,1,1]  OBJ       6.644469      CON11     0.891769    
    y[3,1,1]  CON13     1.000000    
    y[3,1,2]  OBJ       8.738112      CON12     0.802115    
    y[3,1,2]  CON14     1.000000    
    y[3,2,1]  OBJ       8.870306      CON11     1.230905    
    y[3,2,1]  CON15     1.000000    
    y[3,2,2]  OBJ       6.297329      CON12     0.680296    
    y[3,2,2]  CON16     1.000000    
    y[3,3,1]  OBJ       7.177025      CON11     1.048427    
    y[3,3,1]  CON17     1.000000    
    y[3,3,2]  OBJ       8.460712      CON12     0.705261    
    y[3,3,2]  CON18     1.000000    
    y[3,4,1]  OBJ       6.225379      CON11     1.184395    
    y[3,4,1]  CON19     1.000000    
    y[3,4,2]  OBJ       5.008097      CON12     1.494043    
    y[3,4,2]  CON20     1.000000    
    z[1,1]    OBJ       844.574691    CON13     1.000000    
    z[1,2]    OBJ       555.553326    CON14     1.000000    
    z[2,1]    OBJ       805.504277    CON15     1.000000    
    z[2,2]    OBJ       849.051701    CON16     1.000000    
    z[3,1]    OBJ       722.034858    CON17     1.000000    
    z[3,2]    OBJ       779.084656    CON18     1.000000    
    z[4,1]    OBJ       816.726827    CON19     1.000000    
    z[4,2]    OBJ       807.990159    CON20     1.000000    
    MARKER    'MARKER'                 'INTEND'
RHS
    RHS       CON1      -0.000000     CON2      -0.000000   
    RHS       CON3      -0.000000     CON4      -0.000000   
    RHS       CON5      -0.000000     CON6      -0.000000   
    RHS       CON7      -0.000000     CON8      -0.000000   
    RHS       CON9      -0.000000     CON10     -0.000000   
    RHS       CON11     -0.000000     CON12     -0.000000   
    RHS       CON13     1.000000      CON14     1.000000    
    RHS       CON15     1.000000      CON16     1.000000    
    RHS       CON17     1.000000      CON18     1.000000    
    RHS       CON19     1.000000      CON20     1.000000    
BOUNDS
 BV BOUND     u[1,1]  
 BV BOUND     u[1,2]  
 BV BOUND     u[2,1]  
 BV BOUND     u[2,2]  
 BV BOUND     u[3,1]  
 BV BOUND     u[3,2]  
 BV BOUND     y[1,1,1]
 BV BOUND     y[1,1,2]
 BV BOUND     y[1,2,1]
 BV BOUND     y[1,2,2]
 BV BOUND     y[1,3,1]
 BV BOUND     y[1,3,2]
 BV BOUND     y[1,4,1]
 BV BOUND     y[1,4,2]
 BV BOUND     y[2,1,1]
 BV BOUND     y[2,1,2]
 BV BOUND     y[2,2,1]
 BV BOUND     y[2,2,2]
 BV BOUND     y[2,3,1]
 BV BOUND     y[2,3,2]
 BV BOUND     y[2,4,1]
 BV BOUND     y[2,4,2]
 BV BOUND     y[3,1,1]
 BV BOUND     y[3,1,2]
 BV BOUND     y[3,2,1]
 BV BOUND     y[3,2,2]
 BV BOUND     y[3,3,1]
 BV BOUND     y[3,3,2]
 BV BOUND     y[3,4,1]
 BV BOUND     y[3,4,2]
 BV BOUND     z[1,1]  
 BV BOUND     z[1,2]  
 BV BOUND     z[2,1]  
 BV BOUND     z[2,2]  
 BV BOUND     z[3,1]  
 BV BOUND     z[3,2]  
 BV BOUND     z[4,1]  
 BV BOUND     z[4,2]  
ENDATA
